p idrup
i 9 0
i -1 0
i -31 0
i 28 0
i -15 0
i 10 0
i 4 -13 0
i 7 0
i 32 0
i -15 0
i -3 0
i -19 0
i 10 0
i -3 0
i 32 0
i -18 13 0
i -4 -18 0
i -15 0
i -17 0
i -5 0
i -17 0
i 6 -2 0
i 89 77 0
i -115 0
i -120 -77 0
i 10 0
i 12 81 0
i 2 120 0
i -99 -132 -88 0
i -60 0
i -47 0
i 10 0
i -58 -14 99 0
i -12 88 0
i -6 -8 0
i -88 14 18 0
i 8 88 0
i -81 -89 0
i 119 0
i 44 132 0
i -142 0
i 16 0
i -4 -44 0
i 29 0
i 50 0
i 11 0
i 114 58 0
i -114 80 0
i 10 0
q -49 109 -137 38 40 11 -80 13 -131 118 33 -30 -134 -15 0
s UNSATISFIABLE
u 13 -80 0
